glucose
sensor
electrochemical
sensors
amperometric
methods
measure
concentration
sample
example
models
diffusion
ferri/ferrocyanide
redox
mediators
unit
cell
electrolyte
above
interdigitated
electrode
gives
linear
response
suitable
range
concentrations
electroanalysis
interface
used
couple
chemical
species
transport
electrolysis
working
counter
electrodes
oxidized
oxidase
enzyme
solution
according
michaelis–menten
kinetics
model
glucose_sensor
mph
param
parameters
c_glucose_ext
external
v_max
maximum
rate
reaction
default
tcd
@tag:tcd
tertiaryelectroanalysis
@type:tertiaryelectroanalysis
@label:electroanalysis
electricpotentialionicphase
electricpotential
dt2invdiscretization_disc
ice
@tag:ice
@type:electrolyte
@label:electrolyte
nflx
@tag:nflx
noflux
@type:noflux
no
flux
@label:no flux
ein
@tag:ein
electricinsulation
@type:electricinsulation
insulation
@label:insulation
init
@tag:init
@type:init
initial
values
@label:initial values
es
@tag:es
electrodesurface
@type:electrodesurface
surface
@label:electrode surface
er
@tag:er
electrodereaction
@type:electrodereaction
@label:electrode reaction
conc
@tag:conc
@type:concentration
@label:concentration
reac
@tag:reac
reactions
@type:reactions
@label:reactions
geom
geometry
geomnative
@tag:r
rectangle
@type:rectangle
@label:rectangle
sketchobject
pt
@tag:pt
point
@type:point
@label:point
arr
@tag:arr
array
@type:array
@label:array
fin
@tag:fin
finalize
@type:finalize
form
union
@label:form union
form_union/assembly
construction
@tag:construction
@type:construction
construction_geometry
@label:construction_geometry
image
@tag:image
@type:geometry
@label:geometry
var
variables
r_mm
aveop
@tag:aveop
average
@type:average
@label:average
material
fixed
spatial
mesh
view
@tag:view
modelview2d
@type:modelview2d
@label:view
axis
@tag:axis
axis2d
@type:axis2d
@label:axis
cminpt
@tag:cminpt
commoninputdefault
@type:commoninputdefault
inputs
@label:default model inputs
comp
component
tdp
thermodynamics
size
@tag:size
meshsizedefault
@type:meshsizedefault
@label:size
ftri
@tag:ftri
freetri
@type:freetri
free
triangular
@label:free triangular
@type:size
meshnative
@type:mesh
@label:mesh
optsequence
std
study
stat
@tag:stat
stationary
@type:stationary
@label:stationary
sol
st
@tag:st
studystep
@type:studystep
@tag:v
@type:variables
dependent
@label:dependent variables
comp1_c_ferri
@tag:comp1_c_ferri
field
@type:field
c_ferri
comp1_c_ferro
@tag:comp1_c_ferro
c_ferro
comp1_c_glucose
@tag:comp1_c_glucose
c_glucose
comp1_tcd_phisce
@tag:comp1_tcd_phisce
state
@type:state
potential
phisce
@label:counter electrode potential
@tag:s
solver
@label:stationary solver
adef
@tag:adef
advanced
@type:advanced
@label:advanced
@tag:p
parametric
@type:parametric
@label:parametric
fc
@tag:fc
fullycoupled
@type:fullycoupled
fully
coupled
@label:fully coupled
@tag:d
direct
@type:direct
@label:direct
result
results
dset
@tag:dset
@type:solution
pg
@tag:pg
plotgroup2d
@type:plotgroup2d
@label:concentration, glucose
surf
@tag:surf
@type:surface
@label:surface
str
@tag:str
streamline
@type:streamline
@label:streamline
ferro
@label:concentration, ferro
ferri
@label:concentration, ferri
plotgroup1d
@type:plotgroup1d
current
density
@label:average current density
glob
@tag:glob
global
@type:global
@label:global
geommanagernative
hist
@study:std
@study:stat
@physics:tcd
@geom:geom
@geom:r
@geom:pt
@geom:arr
@geom:input
@geom:selection
@cpl
@cpl:aveop
@cpl:selection
@expr:var
@mesh:mesh
@mesh:size
@mesh:ftri
@mesh:selection
@sol:sol
@sol:st
@sol:v
@sol:comp1_tcd_phisCE
@sol:s
@sol:p
@sol:fc
@sol:d
@sol:i
@sol:mg
@sol:pr
@sol:sc
@sol:po
@sol:cs
@result:pg
@result:surf
@result:str
@result:glob
sys
@tag:sys
boundary
@type:boundary
system
@label:boundary system
soldata